--- Job gamsJupyter6.gms Start 12/06/20 22:54:36 32.2.0 rc62c018 WEX-WEI x86 64bit/MS Windows
--- Applying:
    D:\GAMS\gmsprmNT.txt
--- GAMS Parameters defined
    LP CPLEX
    MIP CPLEX
    RMIP CPLEX
    NLP CONOPT
    MCP PATH
    MPEC NLPEC
    RMPEC NLPEC
    CNS CONOPT
    DNLP CONOPT
    RMINLP CONOPT
    MINLP DICOPT
    QCP CONOPT
    MIQCP SBB
    RMIQCP CONOPT
    EMP JAMS
    Restart D:\Github\CS524-Final-Project\_gams_py_gcp0.g00
    Input D:\Github\CS524-Final-Project\gamsJupyter6.gms
    Output D:\Github\CS524-Final-Project\gamsJupyter6.lst
    Save D:\Github\CS524-Final-Project\_gams_py_gcp5.g0?
    ScrDir D:\Github\CS524-Final-Project\225a\
    SysDir D:\GAMS\
    CurDir D:\Github\CS524-Final-Project\
    LogOption 3
    LogFile D:\Github\CS524-Final-Project\gamsJupyter6.log
    Trace D:\Github\CS524-Final-Project\gamsJupyter6.trc
    TraceOpt 3
    GDX D:\Github\CS524-Final-Project\_gams_py_gdb5.gdx
GAMS 32.2.0   Copyright (C) 1987-2020 GAMS Development. All rights reserved
Licensee: Introduction to Optimization (CS/ISyE/ECE 524) S200826/0001AB-GEN
          University of Wisconsin-Madison, Computer Sciences Dept.   DCE850
          C:\Users\Jack Cai\Documents\GAMS\gamslice.txt
          Evaluation license: Not for commercial or production use
--- Starting continued compilation
--- Workfile was generated under GAMS version WEX322-322
--- gamsJupyter6.gms(19) 3 Mb
--- Starting execution: elapsed 0:00:00.010
--- Generating RMIP model sr2
--- gamsJupyter6.gms(97) 4 Mb
---   101 rows  101 columns  371 non-zeroes
---   100 discrete-columns
--- Executing CPLEX (Solvelink=2): elapsed 0:00:00.024

IBM ILOG CPLEX   32.2.0 rc62c018 Released Aug 26, 2020 WEI x86 64bit/MS Window
--- GAMS/Cplex Link licensed for continuous and discrete problems.
Cplex 12.10.0.0

Reading data...
Starting Cplex...
Space for names approximately 0.00 Mb
Use option 'names no' to turn use of names off
Version identifier: 12.10.0.0 | 2019-11-26 | 843d4de2ae
CPXPARAM_Advance                                 0
CPXPARAM_Threads                                 1
CPXPARAM_Parallel                                1
Tried aggregator 1 time.
LP Presolve eliminated 46 rows and 11 columns.
Aggregator did 45 substitutions.
Reduced LP has 10 rows, 45 columns, and 90 nonzeros.
Presolve time = 0.00 sec. (0.10 ticks)
Initializing dual steep norms . . .

Iteration log . . .
Iteration:     1   Dual objective     =            18.000000
LP status(1): optimal
Cplex Time: 0.00sec (det. 0.15 ticks)

Optimal solution found.
Objective :          74.000000

--- Reading solution for model sr2
--- Executing after solve: elapsed 0:00:00.076
--- gamsJupyter6.gms(99) 4 Mb
--- GDX File D:\Github\CS524-Final-Project\_gams_py_gdb5.gdx
*** Status: Normal completion
--- Job gamsJupyter6.gms Stop 12/06/20 22:54:36 elapsed 0:00:00.090
